c description: Random 3-CNF over 8 variables and 16 clauses
p cnf 8 16
1 3 -7 0
3 -7 -8 0
-1 -4 -7 0
-1 -6 7 0
2 6 -8 0
1 -3 -8 0
2 -5 8 0
1 -2 5 0
-4 5 8 0
2 -5 -6 0
-1 2 8 0
1 3 -8 0
-3 6 -7 0
2 3 -4 0
4 -6 -8 0
2 -3 -8 0